predicate globalCardinalityChoco(array [int] of var int: x,array [int] of int: cover,array [int] of var int: counts,bool: closed);
predicate alldifferentChoco(array [int] of var int: x);
predicate atleastChoco(int: n,array [int] of var int: x,int: v);
predicate atmostChoco(int: n,array [int] of var int: x,int: v);
array [1..18] of int: X_INTRODUCED_94_ = [3,1,1,1,1,1,1,1,1,1,1,1,1,1,1,1,1,1];
array [1..18] of int: X_INTRODUCED_95_ = [0,1,2,3,4,5,6,7,8,9,10,11,12,13,14,15,16,17];
array [1..2] of int: X_INTRODUCED_115_ = [1,1];
array [1..324] of int: X_INTRODUCED_342_ = [0,0,0,0,0,0,0,0,0,0,0,0,0,0,0,0,0,0,0,0,0,0,152,152,121,121,121,121,122,122,122,122,122,124,124,124,0,0,0,0,152,152,121,121,121,121,122,122,122,122,122,124,124,124,0,0,0,0,152,152,121,121,121,121,122,122,122,122,122,124,124,124,0,112,112,112,0,0,163,163,163,163,188,188,188,188,188,102,102,102,0,112,112,112,0,0,163,163,163,163,188,188,188,188,188,102,102,102,0,121,121,121,191,191,0,0,0,0,108,108,108,108,108,137,137,137,0,121,121,121,191,191,0,0,0,0,108,108,108,108,108,137,137,137,0,121,121,121,191,191,0,0,0,0,108,108,108,108,108,137,137,137,0,121,121,121,191,191,0,0,0,0,108,108,108,108,108,137,137,137,0,120,120,120,133,133,184,184,184,184,0,0,0,0,0,173,173,173,0,120,120,120,133,133,184,184,184,184,0,0,0,0,0,173,173,173,0,120,120,120,133,133,184,184,184,184,0,0,0,0,0,173,173,173,0,120,120,120,133,133,184,184,184,184,0,0,0,0,0,173,173,173,0,120,120,120,133,133,184,184,184,184,0,0,0,0,0,173,173,173,0,184,184,184,154,154,166,166,166,166,116,116,116,116,116,0,0,0,0,184,184,184,154,154,166,166,166,166,116,116,116,116,116,0,0,0,0,184,184,184,154,154,166,166,166,166,116,116,116,116,116,0,0,0];
array [1..2] of int: X_INTRODUCED_381_ = [1,-1];
array [1..37] of int: X_INTRODUCED_388_ = [1,-1,-1,-1,-1,-1,-1,-1,-1,-1,-1,-1,-1,-1,-1,-1,-1,-1,-1,-1,-10,-10,-10,-10,-10,-10,-10,-10,-10,-10,-10,-10,-10,-10,-10,-10,-10];
var 0..17: X_INTRODUCED_0_;
var 0..17: X_INTRODUCED_1_;
var 0..17: X_INTRODUCED_2_;
var 0..17: X_INTRODUCED_3_;
var {0,1,2,3,4,5,7,8,9,11,12,13,14,15,16,17}: X_INTRODUCED_4_;
var {0,1,2,3,4,5,7,8,9,11,12,13,14,15,16,17}: X_INTRODUCED_5_;
var {0,1,2,3,4,5,8,9,11,12,13,14,15,16,17}: X_INTRODUCED_6_;
var {0,1,2,3,4,5,8,9,11,12,13,14,15,16,17}: X_INTRODUCED_7_;
var {0,1,2,3,4,5,8,9,11,12,13,14,15,16,17}: X_INTRODUCED_8_;
var {0,1,2,3,4,5,9,12,13,14,15,16,17}: X_INTRODUCED_9_;
var {0,1,2,3,4,5,9,12,13,14,16,17}: X_INTRODUCED_10_;
var {0,1,2,3,4,5,9,12,13,14,17}: X_INTRODUCED_11_;
var {0,2,3,4,5,9,13,14,17}: X_INTRODUCED_12_;
var {0,3,4,5,13,14,17}: X_INTRODUCED_13_;
var {0,3,4,5,13,14,17}: X_INTRODUCED_14_;
var {0,3,5,13,14,17}: X_INTRODUCED_15_;
var {0,3,5,13,14,17}: X_INTRODUCED_16_;
var {0,5,13,14,17}: X_INTRODUCED_17_;
var {0,13,14}: X_INTRODUCED_18_;
var {0,14}: X_INTRODUCED_19_;
var 1..20: X_INTRODUCED_20_;
var 1..20: X_INTRODUCED_21_;
var 1..20: X_INTRODUCED_22_;
var 1..20: X_INTRODUCED_23_;
var 1..20: X_INTRODUCED_24_;
var 1..20: X_INTRODUCED_25_;
var 1..20: X_INTRODUCED_26_;
var 1..20: X_INTRODUCED_27_;
var 1..20: X_INTRODUCED_28_;
var 1..20: X_INTRODUCED_29_;
var 1..20: X_INTRODUCED_30_;
var 1..20: X_INTRODUCED_31_;
var 1..20: X_INTRODUCED_32_;
var 1..20: X_INTRODUCED_33_;
var 1..20: X_INTRODUCED_34_;
var 1..20: X_INTRODUCED_35_;
var 1..20: X_INTRODUCED_36_;
var 0..11: X_INTRODUCED_37_:: is_defined_var;
var 0..12: X_INTRODUCED_38_:: is_defined_var;
var 0..16: X_INTRODUCED_39_:: is_defined_var;
var 0..14: X_INTRODUCED_40_:: is_defined_var;
var 0..17: X_INTRODUCED_41_:: is_defined_var;
var 0..3: X_INTRODUCED_42_:: is_defined_var;
var 0..5: X_INTRODUCED_43_:: is_defined_var;
var 0..8: X_INTRODUCED_44_:: is_defined_var;
var 0..12: X_INTRODUCED_45_:: is_defined_var;
var 0..3: X_INTRODUCED_46_:: is_defined_var;
var 0..8: X_INTRODUCED_47_:: is_defined_var;
var 0..11: X_INTRODUCED_48_:: is_defined_var;
var 0..18: X_INTRODUCED_49_:: is_defined_var;
var 0..19: X_INTRODUCED_50_:: is_defined_var;
var 0..9: X_INTRODUCED_51_:: is_defined_var;
var 0..10: X_INTRODUCED_52_:: is_defined_var;
var 0..17: X_INTRODUCED_53_:: is_defined_var;
var 0..17: X_INTRODUCED_74_;
var 0..17: X_INTRODUCED_75_;
var 0..17: X_INTRODUCED_76_;
var 0..17: X_INTRODUCED_77_;
var 0..17: X_INTRODUCED_78_;
var 0..17: X_INTRODUCED_79_;
var 0..17: X_INTRODUCED_80_;
var 0..17: X_INTRODUCED_81_;
var 0..17: X_INTRODUCED_82_;
var 0..17: X_INTRODUCED_83_;
var 0..17: X_INTRODUCED_84_;
var 0..17: X_INTRODUCED_85_;
var 0..17: X_INTRODUCED_86_;
var 0..17: X_INTRODUCED_87_;
var 0..17: X_INTRODUCED_88_;
var 0..17: X_INTRODUCED_89_;
var 0..17: X_INTRODUCED_90_;
var 0..17: X_INTRODUCED_91_;
var 0..17: X_INTRODUCED_92_;
var 0..5559: objective:: output_var:: is_defined_var;
var bool: X_INTRODUCED_132_ ::var_is_introduced :: is_defined_var;
var bool: X_INTRODUCED_133_ ::var_is_introduced :: is_defined_var;
var bool: X_INTRODUCED_134_ ::var_is_introduced :: is_defined_var;
var bool: X_INTRODUCED_143_ ::var_is_introduced :: is_defined_var;
var bool: X_INTRODUCED_144_ ::var_is_introduced :: is_defined_var;
var bool: X_INTRODUCED_145_ ::var_is_introduced :: is_defined_var;
var bool: X_INTRODUCED_154_ ::var_is_introduced :: is_defined_var;
var bool: X_INTRODUCED_155_ ::var_is_introduced :: is_defined_var;
var bool: X_INTRODUCED_156_ ::var_is_introduced :: is_defined_var;
var bool: X_INTRODUCED_165_ ::var_is_introduced :: is_defined_var;
var bool: X_INTRODUCED_166_ ::var_is_introduced :: is_defined_var;
var bool: X_INTRODUCED_167_ ::var_is_introduced :: is_defined_var;
var bool: X_INTRODUCED_176_ ::var_is_introduced :: is_defined_var;
var bool: X_INTRODUCED_177_ ::var_is_introduced :: is_defined_var;
var bool: X_INTRODUCED_178_ ::var_is_introduced :: is_defined_var;
var bool: X_INTRODUCED_187_ ::var_is_introduced :: is_defined_var;
var bool: X_INTRODUCED_188_ ::var_is_introduced :: is_defined_var;
var bool: X_INTRODUCED_189_ ::var_is_introduced :: is_defined_var;
var bool: X_INTRODUCED_198_ ::var_is_introduced :: is_defined_var;
var bool: X_INTRODUCED_199_ ::var_is_introduced :: is_defined_var;
var bool: X_INTRODUCED_200_ ::var_is_introduced :: is_defined_var;
var bool: X_INTRODUCED_209_ ::var_is_introduced :: is_defined_var;
var bool: X_INTRODUCED_210_ ::var_is_introduced :: is_defined_var;
var bool: X_INTRODUCED_211_ ::var_is_introduced :: is_defined_var;
var bool: X_INTRODUCED_220_ ::var_is_introduced :: is_defined_var;
var bool: X_INTRODUCED_221_ ::var_is_introduced :: is_defined_var;
var bool: X_INTRODUCED_222_ ::var_is_introduced :: is_defined_var;
var bool: X_INTRODUCED_231_ ::var_is_introduced :: is_defined_var;
var bool: X_INTRODUCED_232_ ::var_is_introduced :: is_defined_var;
var bool: X_INTRODUCED_233_ ::var_is_introduced :: is_defined_var;
var bool: X_INTRODUCED_242_ ::var_is_introduced :: is_defined_var;
var bool: X_INTRODUCED_243_ ::var_is_introduced :: is_defined_var;
var bool: X_INTRODUCED_244_ ::var_is_introduced :: is_defined_var;
var bool: X_INTRODUCED_253_ ::var_is_introduced :: is_defined_var;
var bool: X_INTRODUCED_254_ ::var_is_introduced :: is_defined_var;
var bool: X_INTRODUCED_255_ ::var_is_introduced :: is_defined_var;
var bool: X_INTRODUCED_264_ ::var_is_introduced :: is_defined_var;
var bool: X_INTRODUCED_265_ ::var_is_introduced :: is_defined_var;
var bool: X_INTRODUCED_266_ ::var_is_introduced :: is_defined_var;
var bool: X_INTRODUCED_275_ ::var_is_introduced :: is_defined_var;
var bool: X_INTRODUCED_276_ ::var_is_introduced :: is_defined_var;
var bool: X_INTRODUCED_277_ ::var_is_introduced :: is_defined_var;
var bool: X_INTRODUCED_286_ ::var_is_introduced :: is_defined_var;
var bool: X_INTRODUCED_287_ ::var_is_introduced :: is_defined_var;
var bool: X_INTRODUCED_288_ ::var_is_introduced :: is_defined_var;
var bool: X_INTRODUCED_297_ ::var_is_introduced :: is_defined_var;
var bool: X_INTRODUCED_298_ ::var_is_introduced :: is_defined_var;
var bool: X_INTRODUCED_299_ ::var_is_introduced :: is_defined_var;
var bool: X_INTRODUCED_308_ ::var_is_introduced :: is_defined_var;
var bool: X_INTRODUCED_309_ ::var_is_introduced :: is_defined_var;
var bool: X_INTRODUCED_310_ ::var_is_introduced :: is_defined_var;
var bool: X_INTRODUCED_319_ ::var_is_introduced :: is_defined_var;
var bool: X_INTRODUCED_320_ ::var_is_introduced :: is_defined_var;
var bool: X_INTRODUCED_321_ ::var_is_introduced :: is_defined_var;
var bool: X_INTRODUCED_330_ ::var_is_introduced :: is_defined_var;
var bool: X_INTRODUCED_331_ ::var_is_introduced :: is_defined_var;
var bool: X_INTRODUCED_332_ ::var_is_introduced :: is_defined_var;
var 0..191: X_INTRODUCED_341_ ::var_is_introduced :: is_defined_var;
var 1..324: X_INTRODUCED_344_ ::var_is_introduced :: is_defined_var;
var 0..191: X_INTRODUCED_345_ ::var_is_introduced :: is_defined_var;
var 1..324: X_INTRODUCED_346_ ::var_is_introduced :: is_defined_var;
var 0..191: X_INTRODUCED_347_ ::var_is_introduced :: is_defined_var;
var 1..324: X_INTRODUCED_348_ ::var_is_introduced :: is_defined_var;
var 0..191: X_INTRODUCED_349_ ::var_is_introduced :: is_defined_var;
var 1..324: X_INTRODUCED_350_ ::var_is_introduced :: is_defined_var;
var 0..191: X_INTRODUCED_351_ ::var_is_introduced :: is_defined_var;
var 1..324: X_INTRODUCED_352_ ::var_is_introduced :: is_defined_var;
var 0..191: X_INTRODUCED_353_ ::var_is_introduced :: is_defined_var;
var 1..324: X_INTRODUCED_354_ ::var_is_introduced :: is_defined_var;
var 0..191: X_INTRODUCED_355_ ::var_is_introduced :: is_defined_var;
var 1..324: X_INTRODUCED_356_ ::var_is_introduced :: is_defined_var;
var 0..191: X_INTRODUCED_357_ ::var_is_introduced :: is_defined_var;
var 1..324: X_INTRODUCED_358_ ::var_is_introduced :: is_defined_var;
var 0..191: X_INTRODUCED_359_ ::var_is_introduced :: is_defined_var;
var 1..324: X_INTRODUCED_360_ ::var_is_introduced :: is_defined_var;
var 0..191: X_INTRODUCED_361_ ::var_is_introduced :: is_defined_var;
var 1..324: X_INTRODUCED_362_ ::var_is_introduced :: is_defined_var;
var 0..191: X_INTRODUCED_363_ ::var_is_introduced :: is_defined_var;
var 1..324: X_INTRODUCED_364_ ::var_is_introduced :: is_defined_var;
var 0..191: X_INTRODUCED_365_ ::var_is_introduced :: is_defined_var;
var 1..324: X_INTRODUCED_366_ ::var_is_introduced :: is_defined_var;
var 0..191: X_INTRODUCED_367_ ::var_is_introduced :: is_defined_var;
var 1..324: X_INTRODUCED_368_ ::var_is_introduced :: is_defined_var;
var 0..191: X_INTRODUCED_369_ ::var_is_introduced :: is_defined_var;
var 1..324: X_INTRODUCED_370_ ::var_is_introduced :: is_defined_var;
var 0..191: X_INTRODUCED_371_ ::var_is_introduced :: is_defined_var;
var 1..324: X_INTRODUCED_372_ ::var_is_introduced :: is_defined_var;
var 0..191: X_INTRODUCED_373_ ::var_is_introduced :: is_defined_var;
var 1..324: X_INTRODUCED_374_ ::var_is_introduced :: is_defined_var;
var 0..191: X_INTRODUCED_375_ ::var_is_introduced :: is_defined_var;
var 1..324: X_INTRODUCED_376_ ::var_is_introduced :: is_defined_var;
var 0..191: X_INTRODUCED_377_ ::var_is_introduced :: is_defined_var;
var 1..324: X_INTRODUCED_378_ ::var_is_introduced :: is_defined_var;
var 0..191: X_INTRODUCED_379_ ::var_is_introduced :: is_defined_var;
var 1..324: X_INTRODUCED_380_ ::var_is_introduced :: is_defined_var;
array [1..20] of var int: production_by_order:: output_array([1..20]) = [X_INTRODUCED_0_,X_INTRODUCED_1_,X_INTRODUCED_2_,X_INTRODUCED_3_,X_INTRODUCED_4_,X_INTRODUCED_5_,X_INTRODUCED_6_,X_INTRODUCED_7_,X_INTRODUCED_8_,X_INTRODUCED_9_,X_INTRODUCED_10_,X_INTRODUCED_11_,X_INTRODUCED_12_,X_INTRODUCED_13_,X_INTRODUCED_14_,X_INTRODUCED_15_,X_INTRODUCED_16_,X_INTRODUCED_17_,X_INTRODUCED_18_,X_INTRODUCED_19_];
array [1..17] of var int: production_period = [X_INTRODUCED_20_,X_INTRODUCED_21_,X_INTRODUCED_22_,X_INTRODUCED_23_,X_INTRODUCED_24_,X_INTRODUCED_25_,X_INTRODUCED_26_,X_INTRODUCED_27_,X_INTRODUCED_28_,X_INTRODUCED_29_,X_INTRODUCED_30_,X_INTRODUCED_31_,X_INTRODUCED_32_,X_INTRODUCED_33_,X_INTRODUCED_34_,X_INTRODUCED_35_,X_INTRODUCED_36_];
array [1..17] of var int: inventory_periods:: output_array([1..17]) = [X_INTRODUCED_37_,X_INTRODUCED_38_,X_INTRODUCED_39_,X_INTRODUCED_40_,X_INTRODUCED_41_,X_INTRODUCED_42_,X_INTRODUCED_43_,X_INTRODUCED_44_,X_INTRODUCED_45_,X_INTRODUCED_46_,X_INTRODUCED_47_,X_INTRODUCED_48_,X_INTRODUCED_49_,X_INTRODUCED_50_,X_INTRODUCED_51_,X_INTRODUCED_52_,X_INTRODUCED_53_];
array [1..20] of var int: production_order = [X_INTRODUCED_0_,X_INTRODUCED_74_,X_INTRODUCED_75_,X_INTRODUCED_76_,X_INTRODUCED_77_,X_INTRODUCED_78_,X_INTRODUCED_79_,X_INTRODUCED_80_,X_INTRODUCED_81_,X_INTRODUCED_82_,X_INTRODUCED_83_,X_INTRODUCED_84_,X_INTRODUCED_85_,X_INTRODUCED_86_,X_INTRODUCED_87_,X_INTRODUCED_88_,X_INTRODUCED_89_,X_INTRODUCED_90_,X_INTRODUCED_91_,X_INTRODUCED_92_];
array [1..37] of var int: X_INTRODUCED_387_ ::var_is_introduced  = [objective,X_INTRODUCED_341_,X_INTRODUCED_345_,X_INTRODUCED_347_,X_INTRODUCED_349_,X_INTRODUCED_351_,X_INTRODUCED_353_,X_INTRODUCED_355_,X_INTRODUCED_357_,X_INTRODUCED_359_,X_INTRODUCED_361_,X_INTRODUCED_363_,X_INTRODUCED_365_,X_INTRODUCED_367_,X_INTRODUCED_369_,X_INTRODUCED_371_,X_INTRODUCED_373_,X_INTRODUCED_375_,X_INTRODUCED_377_,X_INTRODUCED_379_,X_INTRODUCED_37_,X_INTRODUCED_38_,X_INTRODUCED_39_,X_INTRODUCED_40_,X_INTRODUCED_41_,X_INTRODUCED_42_,X_INTRODUCED_43_,X_INTRODUCED_44_,X_INTRODUCED_45_,X_INTRODUCED_46_,X_INTRODUCED_47_,X_INTRODUCED_48_,X_INTRODUCED_49_,X_INTRODUCED_50_,X_INTRODUCED_51_,X_INTRODUCED_52_,X_INTRODUCED_53_];
constraint globalCardinalityChoco(production_by_order,X_INTRODUCED_95_,X_INTRODUCED_94_,false);
constraint array_var_int_element(X_INTRODUCED_20_,production_by_order,1);
constraint array_var_int_element(X_INTRODUCED_21_,production_by_order,2);
constraint array_var_int_element(X_INTRODUCED_22_,production_by_order,3);
constraint array_var_int_element(X_INTRODUCED_23_,production_by_order,4);
constraint array_var_int_element(X_INTRODUCED_24_,production_by_order,5);
constraint array_var_int_element(X_INTRODUCED_25_,production_by_order,6);
constraint array_var_int_element(X_INTRODUCED_26_,production_by_order,7);
constraint array_var_int_element(X_INTRODUCED_27_,production_by_order,8);
constraint array_var_int_element(X_INTRODUCED_28_,production_by_order,9);
constraint array_var_int_element(X_INTRODUCED_29_,production_by_order,10);
constraint array_var_int_element(X_INTRODUCED_30_,production_by_order,11);
constraint array_var_int_element(X_INTRODUCED_31_,production_by_order,12);
constraint array_var_int_element(X_INTRODUCED_32_,production_by_order,13);
constraint array_var_int_element(X_INTRODUCED_33_,production_by_order,14);
constraint array_var_int_element(X_INTRODUCED_34_,production_by_order,15);
constraint array_var_int_element(X_INTRODUCED_35_,production_by_order,16);
constraint array_var_int_element(X_INTRODUCED_36_,production_by_order,17);
constraint alldifferentChoco(production_period);
constraint int_lin_eq(X_INTRODUCED_115_,[X_INTRODUCED_37_,X_INTRODUCED_20_],12):: defines_var(X_INTRODUCED_37_);
constraint int_lin_eq(X_INTRODUCED_115_,[X_INTRODUCED_38_,X_INTRODUCED_21_],13):: defines_var(X_INTRODUCED_38_);
constraint int_lin_eq(X_INTRODUCED_115_,[X_INTRODUCED_39_,X_INTRODUCED_22_],17):: defines_var(X_INTRODUCED_39_);
constraint int_lin_eq(X_INTRODUCED_115_,[X_INTRODUCED_40_,X_INTRODUCED_23_],15):: defines_var(X_INTRODUCED_40_);
constraint int_lin_eq(X_INTRODUCED_115_,[X_INTRODUCED_41_,X_INTRODUCED_24_],18):: defines_var(X_INTRODUCED_41_);
constraint int_lin_eq(X_INTRODUCED_115_,[X_INTRODUCED_42_,X_INTRODUCED_25_],4):: defines_var(X_INTRODUCED_42_);
constraint int_lin_eq(X_INTRODUCED_115_,[X_INTRODUCED_43_,X_INTRODUCED_26_],6):: defines_var(X_INTRODUCED_43_);
constraint int_lin_eq(X_INTRODUCED_115_,[X_INTRODUCED_44_,X_INTRODUCED_27_],9):: defines_var(X_INTRODUCED_44_);
constraint int_lin_eq(X_INTRODUCED_115_,[X_INTRODUCED_45_,X_INTRODUCED_28_],13):: defines_var(X_INTRODUCED_45_);
constraint int_lin_eq(X_INTRODUCED_115_,[X_INTRODUCED_46_,X_INTRODUCED_29_],4):: defines_var(X_INTRODUCED_46_);
constraint int_lin_eq(X_INTRODUCED_115_,[X_INTRODUCED_47_,X_INTRODUCED_30_],9):: defines_var(X_INTRODUCED_47_);
constraint int_lin_eq(X_INTRODUCED_115_,[X_INTRODUCED_48_,X_INTRODUCED_31_],12):: defines_var(X_INTRODUCED_48_);
constraint int_lin_eq(X_INTRODUCED_115_,[X_INTRODUCED_49_,X_INTRODUCED_32_],19):: defines_var(X_INTRODUCED_49_);
constraint int_lin_eq(X_INTRODUCED_115_,[X_INTRODUCED_50_,X_INTRODUCED_33_],20):: defines_var(X_INTRODUCED_50_);
constraint int_lin_eq(X_INTRODUCED_115_,[X_INTRODUCED_51_,X_INTRODUCED_34_],10):: defines_var(X_INTRODUCED_51_);
constraint int_lin_eq(X_INTRODUCED_115_,[X_INTRODUCED_52_,X_INTRODUCED_35_],11):: defines_var(X_INTRODUCED_52_);
constraint int_lin_eq(X_INTRODUCED_115_,[X_INTRODUCED_53_,X_INTRODUCED_36_],18):: defines_var(X_INTRODUCED_53_);
constraint bool_clause([X_INTRODUCED_133_],[X_INTRODUCED_132_]);
constraint array_bool_or([X_INTRODUCED_132_,X_INTRODUCED_134_],true);
constraint bool_clause([X_INTRODUCED_144_],[X_INTRODUCED_143_]);
constraint array_bool_or([X_INTRODUCED_143_,X_INTRODUCED_145_],true);
constraint bool_clause([X_INTRODUCED_155_],[X_INTRODUCED_154_]);
constraint array_bool_or([X_INTRODUCED_154_,X_INTRODUCED_156_],true);
constraint bool_clause([X_INTRODUCED_166_],[X_INTRODUCED_165_]);
constraint array_bool_or([X_INTRODUCED_165_,X_INTRODUCED_167_],true);
constraint bool_clause([X_INTRODUCED_177_],[X_INTRODUCED_176_]);
constraint array_bool_or([X_INTRODUCED_176_,X_INTRODUCED_178_],true);
constraint bool_clause([X_INTRODUCED_188_],[X_INTRODUCED_187_]);
constraint array_bool_or([X_INTRODUCED_187_,X_INTRODUCED_189_],true);
constraint bool_clause([X_INTRODUCED_199_],[X_INTRODUCED_198_]);
constraint array_bool_or([X_INTRODUCED_198_,X_INTRODUCED_200_],true);
constraint bool_clause([X_INTRODUCED_210_],[X_INTRODUCED_209_]);
constraint array_bool_or([X_INTRODUCED_209_,X_INTRODUCED_211_],true);
constraint bool_clause([X_INTRODUCED_221_],[X_INTRODUCED_220_]);
constraint array_bool_or([X_INTRODUCED_220_,X_INTRODUCED_222_],true);
constraint bool_clause([X_INTRODUCED_232_],[X_INTRODUCED_231_]);
constraint array_bool_or([X_INTRODUCED_231_,X_INTRODUCED_233_],true);
constraint bool_clause([X_INTRODUCED_243_],[X_INTRODUCED_242_]);
constraint array_bool_or([X_INTRODUCED_242_,X_INTRODUCED_244_],true);
constraint bool_clause([X_INTRODUCED_254_],[X_INTRODUCED_253_]);
constraint array_bool_or([X_INTRODUCED_253_,X_INTRODUCED_255_],true);
constraint bool_clause([X_INTRODUCED_265_],[X_INTRODUCED_264_]);
constraint array_bool_or([X_INTRODUCED_264_,X_INTRODUCED_266_],true);
constraint bool_clause([X_INTRODUCED_276_],[X_INTRODUCED_275_]);
constraint array_bool_or([X_INTRODUCED_275_,X_INTRODUCED_277_],true);
constraint bool_clause([X_INTRODUCED_287_],[X_INTRODUCED_286_]);
constraint array_bool_or([X_INTRODUCED_286_,X_INTRODUCED_288_],true);
constraint bool_clause([X_INTRODUCED_298_],[X_INTRODUCED_297_]);
constraint array_bool_or([X_INTRODUCED_297_,X_INTRODUCED_299_],true);
constraint bool_clause([X_INTRODUCED_309_],[X_INTRODUCED_308_]);
constraint array_bool_or([X_INTRODUCED_308_,X_INTRODUCED_310_],true);
constraint bool_clause([X_INTRODUCED_320_],[X_INTRODUCED_319_]);
constraint array_bool_or([X_INTRODUCED_319_,X_INTRODUCED_321_],true);
constraint bool_clause([X_INTRODUCED_331_],[X_INTRODUCED_330_]);
constraint array_bool_or([X_INTRODUCED_330_,X_INTRODUCED_332_],true);
constraint atleastChoco(1,production_order,1);
constraint atmostChoco(4,production_order,1);
constraint atleastChoco(1,production_order,2);
constraint atmostChoco(4,production_order,2);
constraint atleastChoco(1,production_order,3);
constraint atmostChoco(4,production_order,3);
constraint atleastChoco(1,production_order,4);
constraint atmostChoco(4,production_order,4);
constraint atleastChoco(1,production_order,5);
constraint atmostChoco(4,production_order,5);
constraint atleastChoco(1,production_order,6);
constraint atmostChoco(4,production_order,6);
constraint atleastChoco(1,production_order,7);
constraint atmostChoco(4,production_order,7);
constraint atleastChoco(1,production_order,8);
constraint atmostChoco(4,production_order,8);
constraint atleastChoco(1,production_order,9);
constraint atmostChoco(4,production_order,9);
constraint atleastChoco(1,production_order,10);
constraint atmostChoco(4,production_order,10);
constraint atleastChoco(1,production_order,11);
constraint atmostChoco(4,production_order,11);
constraint atleastChoco(1,production_order,12);
constraint atmostChoco(4,production_order,12);
constraint atleastChoco(1,production_order,13);
constraint atmostChoco(4,production_order,13);
constraint atleastChoco(1,production_order,14);
constraint atmostChoco(4,production_order,14);
constraint atleastChoco(1,production_order,15);
constraint atmostChoco(4,production_order,15);
constraint atleastChoco(1,production_order,16);
constraint atmostChoco(4,production_order,16);
constraint atleastChoco(1,production_order,17);
constraint atmostChoco(4,production_order,17);
constraint array_int_element(X_INTRODUCED_344_,X_INTRODUCED_342_,X_INTRODUCED_341_);
constraint array_int_element(X_INTRODUCED_346_,X_INTRODUCED_342_,X_INTRODUCED_345_);
constraint array_int_element(X_INTRODUCED_348_,X_INTRODUCED_342_,X_INTRODUCED_347_);
constraint array_int_element(X_INTRODUCED_350_,X_INTRODUCED_342_,X_INTRODUCED_349_);
constraint array_int_element(X_INTRODUCED_352_,X_INTRODUCED_342_,X_INTRODUCED_351_);
constraint array_int_element(X_INTRODUCED_354_,X_INTRODUCED_342_,X_INTRODUCED_353_);
constraint array_int_element(X_INTRODUCED_356_,X_INTRODUCED_342_,X_INTRODUCED_355_);
constraint array_int_element(X_INTRODUCED_358_,X_INTRODUCED_342_,X_INTRODUCED_357_);
constraint array_int_element(X_INTRODUCED_360_,X_INTRODUCED_342_,X_INTRODUCED_359_);
constraint array_int_element(X_INTRODUCED_362_,X_INTRODUCED_342_,X_INTRODUCED_361_);
constraint array_int_element(X_INTRODUCED_364_,X_INTRODUCED_342_,X_INTRODUCED_363_);
constraint array_int_element(X_INTRODUCED_366_,X_INTRODUCED_342_,X_INTRODUCED_365_);
constraint array_int_element(X_INTRODUCED_368_,X_INTRODUCED_342_,X_INTRODUCED_367_);
constraint array_int_element(X_INTRODUCED_370_,X_INTRODUCED_342_,X_INTRODUCED_369_);
constraint array_int_element(X_INTRODUCED_372_,X_INTRODUCED_342_,X_INTRODUCED_371_);
constraint array_int_element(X_INTRODUCED_374_,X_INTRODUCED_342_,X_INTRODUCED_373_);
constraint array_int_element(X_INTRODUCED_376_,X_INTRODUCED_342_,X_INTRODUCED_375_);
constraint array_int_element(X_INTRODUCED_378_,X_INTRODUCED_342_,X_INTRODUCED_377_);
constraint array_int_element(X_INTRODUCED_380_,X_INTRODUCED_342_,X_INTRODUCED_379_);
constraint int_lin_le(X_INTRODUCED_381_,[X_INTRODUCED_20_,X_INTRODUCED_21_],-1);
constraint int_lin_le(X_INTRODUCED_381_,[X_INTRODUCED_21_,X_INTRODUCED_22_],-1);
constraint int_lin_le(X_INTRODUCED_381_,[X_INTRODUCED_23_,X_INTRODUCED_24_],-1);
constraint int_lin_le(X_INTRODUCED_381_,[X_INTRODUCED_25_,X_INTRODUCED_26_],-1);
constraint int_lin_le(X_INTRODUCED_381_,[X_INTRODUCED_26_,X_INTRODUCED_27_],-1);
constraint int_lin_le(X_INTRODUCED_381_,[X_INTRODUCED_27_,X_INTRODUCED_28_],-1);
constraint int_lin_le(X_INTRODUCED_381_,[X_INTRODUCED_29_,X_INTRODUCED_30_],-1);
constraint int_lin_le(X_INTRODUCED_381_,[X_INTRODUCED_30_,X_INTRODUCED_31_],-1);
constraint int_lin_le(X_INTRODUCED_381_,[X_INTRODUCED_31_,X_INTRODUCED_32_],-1);
constraint int_lin_le(X_INTRODUCED_381_,[X_INTRODUCED_32_,X_INTRODUCED_33_],-1);
constraint int_lin_le(X_INTRODUCED_381_,[X_INTRODUCED_34_,X_INTRODUCED_35_],-1);
constraint int_lin_le(X_INTRODUCED_381_,[X_INTRODUCED_35_,X_INTRODUCED_36_],-1);
constraint int_lin_eq(X_INTRODUCED_388_,X_INTRODUCED_387_,0):: defines_var(objective);
constraint int_eq_reif(X_INTRODUCED_1_,0,X_INTRODUCED_132_):: defines_var(X_INTRODUCED_132_);
constraint int_eq_reif(X_INTRODUCED_74_,X_INTRODUCED_0_,X_INTRODUCED_133_):: defines_var(X_INTRODUCED_133_);
constraint int_eq_reif(X_INTRODUCED_74_,X_INTRODUCED_1_,X_INTRODUCED_134_):: defines_var(X_INTRODUCED_134_);
constraint int_eq_reif(X_INTRODUCED_2_,0,X_INTRODUCED_143_):: defines_var(X_INTRODUCED_143_);
constraint int_eq_reif(X_INTRODUCED_75_,X_INTRODUCED_74_,X_INTRODUCED_144_):: defines_var(X_INTRODUCED_144_);
constraint int_eq_reif(X_INTRODUCED_75_,X_INTRODUCED_2_,X_INTRODUCED_145_):: defines_var(X_INTRODUCED_145_);
constraint int_eq_reif(X_INTRODUCED_3_,0,X_INTRODUCED_154_):: defines_var(X_INTRODUCED_154_);
constraint int_eq_reif(X_INTRODUCED_76_,X_INTRODUCED_75_,X_INTRODUCED_155_):: defines_var(X_INTRODUCED_155_);
constraint int_eq_reif(X_INTRODUCED_76_,X_INTRODUCED_3_,X_INTRODUCED_156_):: defines_var(X_INTRODUCED_156_);
constraint int_eq_reif(X_INTRODUCED_4_,0,X_INTRODUCED_165_):: defines_var(X_INTRODUCED_165_);
constraint int_eq_reif(X_INTRODUCED_77_,X_INTRODUCED_76_,X_INTRODUCED_166_):: defines_var(X_INTRODUCED_166_);
constraint int_eq_reif(X_INTRODUCED_77_,X_INTRODUCED_4_,X_INTRODUCED_167_):: defines_var(X_INTRODUCED_167_);
constraint int_eq_reif(X_INTRODUCED_5_,0,X_INTRODUCED_176_):: defines_var(X_INTRODUCED_176_);
constraint int_eq_reif(X_INTRODUCED_78_,X_INTRODUCED_77_,X_INTRODUCED_177_):: defines_var(X_INTRODUCED_177_);
constraint int_eq_reif(X_INTRODUCED_78_,X_INTRODUCED_5_,X_INTRODUCED_178_):: defines_var(X_INTRODUCED_178_);
constraint int_eq_reif(X_INTRODUCED_6_,0,X_INTRODUCED_187_):: defines_var(X_INTRODUCED_187_);
constraint int_eq_reif(X_INTRODUCED_79_,X_INTRODUCED_78_,X_INTRODUCED_188_):: defines_var(X_INTRODUCED_188_);
constraint int_eq_reif(X_INTRODUCED_79_,X_INTRODUCED_6_,X_INTRODUCED_189_):: defines_var(X_INTRODUCED_189_);
constraint int_eq_reif(X_INTRODUCED_7_,0,X_INTRODUCED_198_):: defines_var(X_INTRODUCED_198_);
constraint int_eq_reif(X_INTRODUCED_80_,X_INTRODUCED_79_,X_INTRODUCED_199_):: defines_var(X_INTRODUCED_199_);
constraint int_eq_reif(X_INTRODUCED_80_,X_INTRODUCED_7_,X_INTRODUCED_200_):: defines_var(X_INTRODUCED_200_);
constraint int_eq_reif(X_INTRODUCED_8_,0,X_INTRODUCED_209_):: defines_var(X_INTRODUCED_209_);
constraint int_eq_reif(X_INTRODUCED_81_,X_INTRODUCED_80_,X_INTRODUCED_210_):: defines_var(X_INTRODUCED_210_);
constraint int_eq_reif(X_INTRODUCED_81_,X_INTRODUCED_8_,X_INTRODUCED_211_):: defines_var(X_INTRODUCED_211_);
constraint int_eq_reif(X_INTRODUCED_9_,0,X_INTRODUCED_220_):: defines_var(X_INTRODUCED_220_);
constraint int_eq_reif(X_INTRODUCED_82_,X_INTRODUCED_81_,X_INTRODUCED_221_):: defines_var(X_INTRODUCED_221_);
constraint int_eq_reif(X_INTRODUCED_82_,X_INTRODUCED_9_,X_INTRODUCED_222_):: defines_var(X_INTRODUCED_222_);
constraint int_eq_reif(X_INTRODUCED_10_,0,X_INTRODUCED_231_):: defines_var(X_INTRODUCED_231_);
constraint int_eq_reif(X_INTRODUCED_83_,X_INTRODUCED_82_,X_INTRODUCED_232_):: defines_var(X_INTRODUCED_232_);
constraint int_eq_reif(X_INTRODUCED_83_,X_INTRODUCED_10_,X_INTRODUCED_233_):: defines_var(X_INTRODUCED_233_);
constraint int_eq_reif(X_INTRODUCED_11_,0,X_INTRODUCED_242_):: defines_var(X_INTRODUCED_242_);
constraint int_eq_reif(X_INTRODUCED_84_,X_INTRODUCED_83_,X_INTRODUCED_243_):: defines_var(X_INTRODUCED_243_);
constraint int_eq_reif(X_INTRODUCED_84_,X_INTRODUCED_11_,X_INTRODUCED_244_):: defines_var(X_INTRODUCED_244_);
constraint int_eq_reif(X_INTRODUCED_12_,0,X_INTRODUCED_253_):: defines_var(X_INTRODUCED_253_);
constraint int_eq_reif(X_INTRODUCED_85_,X_INTRODUCED_84_,X_INTRODUCED_254_):: defines_var(X_INTRODUCED_254_);
constraint int_eq_reif(X_INTRODUCED_85_,X_INTRODUCED_12_,X_INTRODUCED_255_):: defines_var(X_INTRODUCED_255_);
constraint int_eq_reif(X_INTRODUCED_13_,0,X_INTRODUCED_264_):: defines_var(X_INTRODUCED_264_);
constraint int_eq_reif(X_INTRODUCED_86_,X_INTRODUCED_85_,X_INTRODUCED_265_):: defines_var(X_INTRODUCED_265_);
constraint int_eq_reif(X_INTRODUCED_86_,X_INTRODUCED_13_,X_INTRODUCED_266_):: defines_var(X_INTRODUCED_266_);
constraint int_eq_reif(X_INTRODUCED_14_,0,X_INTRODUCED_275_):: defines_var(X_INTRODUCED_275_);
constraint int_eq_reif(X_INTRODUCED_87_,X_INTRODUCED_86_,X_INTRODUCED_276_):: defines_var(X_INTRODUCED_276_);
constraint int_eq_reif(X_INTRODUCED_87_,X_INTRODUCED_14_,X_INTRODUCED_277_):: defines_var(X_INTRODUCED_277_);
constraint int_eq_reif(X_INTRODUCED_15_,0,X_INTRODUCED_286_):: defines_var(X_INTRODUCED_286_);
constraint int_eq_reif(X_INTRODUCED_88_,X_INTRODUCED_87_,X_INTRODUCED_287_):: defines_var(X_INTRODUCED_287_);
constraint int_eq_reif(X_INTRODUCED_88_,X_INTRODUCED_15_,X_INTRODUCED_288_):: defines_var(X_INTRODUCED_288_);
constraint int_eq_reif(X_INTRODUCED_16_,0,X_INTRODUCED_297_):: defines_var(X_INTRODUCED_297_);
constraint int_eq_reif(X_INTRODUCED_89_,X_INTRODUCED_88_,X_INTRODUCED_298_):: defines_var(X_INTRODUCED_298_);
constraint int_eq_reif(X_INTRODUCED_89_,X_INTRODUCED_16_,X_INTRODUCED_299_):: defines_var(X_INTRODUCED_299_);
constraint int_eq_reif(X_INTRODUCED_17_,0,X_INTRODUCED_308_):: defines_var(X_INTRODUCED_308_);
constraint int_eq_reif(X_INTRODUCED_90_,X_INTRODUCED_89_,X_INTRODUCED_309_):: defines_var(X_INTRODUCED_309_);
constraint int_eq_reif(X_INTRODUCED_90_,X_INTRODUCED_17_,X_INTRODUCED_310_):: defines_var(X_INTRODUCED_310_);
constraint int_eq_reif(X_INTRODUCED_18_,0,X_INTRODUCED_319_):: defines_var(X_INTRODUCED_319_);
constraint int_eq_reif(X_INTRODUCED_91_,X_INTRODUCED_90_,X_INTRODUCED_320_):: defines_var(X_INTRODUCED_320_);
constraint int_eq_reif(X_INTRODUCED_91_,X_INTRODUCED_18_,X_INTRODUCED_321_):: defines_var(X_INTRODUCED_321_);
constraint int_eq_reif(X_INTRODUCED_19_,0,X_INTRODUCED_330_):: defines_var(X_INTRODUCED_330_);
constraint int_eq_reif(X_INTRODUCED_92_,X_INTRODUCED_91_,X_INTRODUCED_331_):: defines_var(X_INTRODUCED_331_);
constraint int_eq_reif(X_INTRODUCED_92_,X_INTRODUCED_19_,X_INTRODUCED_332_):: defines_var(X_INTRODUCED_332_);
constraint int_lin_eq([1,18,-1],[X_INTRODUCED_74_,X_INTRODUCED_0_,X_INTRODUCED_344_],-1):: domain:: defines_var(X_INTRODUCED_344_);
constraint int_lin_eq([1,18,-1],[X_INTRODUCED_75_,X_INTRODUCED_74_,X_INTRODUCED_346_],-1):: domain:: defines_var(X_INTRODUCED_346_);
constraint int_lin_eq([1,18,-1],[X_INTRODUCED_76_,X_INTRODUCED_75_,X_INTRODUCED_348_],-1):: domain:: defines_var(X_INTRODUCED_348_);
constraint int_lin_eq([1,18,-1],[X_INTRODUCED_77_,X_INTRODUCED_76_,X_INTRODUCED_350_],-1):: domain:: defines_var(X_INTRODUCED_350_);
constraint int_lin_eq([1,18,-1],[X_INTRODUCED_78_,X_INTRODUCED_77_,X_INTRODUCED_352_],-1):: domain:: defines_var(X_INTRODUCED_352_);
constraint int_lin_eq([1,18,-1],[X_INTRODUCED_79_,X_INTRODUCED_78_,X_INTRODUCED_354_],-1):: domain:: defines_var(X_INTRODUCED_354_);
constraint int_lin_eq([1,18,-1],[X_INTRODUCED_80_,X_INTRODUCED_79_,X_INTRODUCED_356_],-1):: domain:: defines_var(X_INTRODUCED_356_);
constraint int_lin_eq([1,18,-1],[X_INTRODUCED_81_,X_INTRODUCED_80_,X_INTRODUCED_358_],-1):: domain:: defines_var(X_INTRODUCED_358_);
constraint int_lin_eq([1,18,-1],[X_INTRODUCED_82_,X_INTRODUCED_81_,X_INTRODUCED_360_],-1):: domain:: defines_var(X_INTRODUCED_360_);
constraint int_lin_eq([1,18,-1],[X_INTRODUCED_83_,X_INTRODUCED_82_,X_INTRODUCED_362_],-1):: domain:: defines_var(X_INTRODUCED_362_);
constraint int_lin_eq([1,18,-1],[X_INTRODUCED_84_,X_INTRODUCED_83_,X_INTRODUCED_364_],-1):: domain:: defines_var(X_INTRODUCED_364_);
constraint int_lin_eq([1,18,-1],[X_INTRODUCED_85_,X_INTRODUCED_84_,X_INTRODUCED_366_],-1):: domain:: defines_var(X_INTRODUCED_366_);
constraint int_lin_eq([1,18,-1],[X_INTRODUCED_86_,X_INTRODUCED_85_,X_INTRODUCED_368_],-1):: domain:: defines_var(X_INTRODUCED_368_);
constraint int_lin_eq([1,18,-1],[X_INTRODUCED_87_,X_INTRODUCED_86_,X_INTRODUCED_370_],-1):: domain:: defines_var(X_INTRODUCED_370_);
constraint int_lin_eq([1,18,-1],[X_INTRODUCED_88_,X_INTRODUCED_87_,X_INTRODUCED_372_],-1):: domain:: defines_var(X_INTRODUCED_372_);
constraint int_lin_eq([1,18,-1],[X_INTRODUCED_89_,X_INTRODUCED_88_,X_INTRODUCED_374_],-1):: domain:: defines_var(X_INTRODUCED_374_);
constraint int_lin_eq([1,18,-1],[X_INTRODUCED_90_,X_INTRODUCED_89_,X_INTRODUCED_376_],-1):: domain:: defines_var(X_INTRODUCED_376_);
constraint int_lin_eq([1,18,-1],[X_INTRODUCED_91_,X_INTRODUCED_90_,X_INTRODUCED_378_],-1):: domain:: defines_var(X_INTRODUCED_378_);
constraint int_lin_eq([1,18,-1],[X_INTRODUCED_92_,X_INTRODUCED_91_,X_INTRODUCED_380_],-1):: domain:: defines_var(X_INTRODUCED_380_);
solve :: seq_search([int_search(production_by_order,first_fail,indomain_median,complete),int_search(inventory_periods,first_fail,indomain_min,complete)]) minimize objective;
